181
0 28 132 163 10 66 160 174 72 32 
81 150 59 27 21 99 111 92 40 23 
44 24 16 155 108 176 130 178 177 29 
94 6 60 47 69 35 73 8 7 145 
125 22 147 143 30 138 12 127 131 38 
50 17 179 110 122 34 129 167 117 39 
36 154 164 97 63 90 139 95 4 58 
56 19 120 55 156 91 106 134 175 41 
171 148 114 13 74 135 37 70 57 162 
96 5 62 137 64 128 33 116 20 168 
161 85 173 89 71 98 180 49 118 15 
153 53 170 87 65 157 146 52 18 11 
104 67 102 54 42 144 165 75 172 140 
169 119 76 158 2 149 105 31 107 141 
126 133 136 123 61 26 45 112 82 48 
46 88 166 151 43 3 9 14 93 100 
115 80 25 142 78 121 152 84 113 77 
1 101 79 68 51 103 159 124 86 83 
109 
